DIMACS2
40 161 178 194 249 184 40 149 241 262 128 302 43 306 191 299 195 100 74 231 234 186 113 19 200 42 10 284 233 13 245 297 269 204 106 280 65 126 7 165 99
p edge 320 2500
e 0 23 1.0
e 0 277 1.0
e 0 26 1.0
e 0 160 1.0
e 0 91 1.0
e 0 168 1.0
e 0 161 35.0
e 0 152 1.0
e 1 37 1.0
e 1 93 1.0
e 1 306 45.0
e 1 116 1.0
e 1 108 1.0
e 1 13 37.0
e 1 114 1.0
e 1 163 1.0
e 2 284 33.0
e 2 51 1.0
e 2 165 37.0
e 2 19 13.0
e 2 301 1.0
e 2 236 1.0
e 2 318 1.0
e 2 77 2.0
e 3 265 1.0
e 3 78 1.0
e 3 37 1.0
e 3 105 1.0
e 3 311 1.0
e 3 119 1.0
e 3 190 1.0
e 3 101 1.0
e 4 273 1.0
e 4 98 1.0
e 4 302 16.0
e 4 143 1.0
e 4 233 1.0
e 4 257 1.0
e 4 298 1.0
e 4 215 1.0
e 5 10 30.0
e 5 162 1.0
e 5 196 1.0
e 5 42 2.0
e 5 77 1.0
e 5 152 2.0
e 5 183 1.0
e 5 193 1.0
e 6 189 1.0
e 6 72 1.0
e 6 62 2.0
e 6 150 1.0
e 6 259 1.0
e 6 239 2.0
e 6 289 1.0
e 6 276 1.0
e 7 170 43.0
e 7 9 25.0
e 7 293 19.0
e 7 131 37.0
e 7 41 6.0
e 7 255 36.0
e 7 63 35.0
e 7 23 4.0
e 8 130 2.0
e 8 184 48.0
e 8 65 20.0
e 8 110 1.0
e 8 96 2.0
e 8 270 1.0
e 8 54 1.0
e 8 204 16.0
e 9 68 1.0
e 9 197 1.0
e 9 198 2.0
e 9 1 3.0
e 9 45 1.0
e 9 144 1.0
e 9 316 1.0
e 9 109 1.0
e 10 294 14.0
e 10 250 19.0
e 10 65 28.0
e 10 234 11.0
e 10 279 38.0
e 10 309 31.0
e 10 308 46.0
e 10 172 35.0
e 11 269 44.0
e 11 15 2.0
e 11 226 1.0
e 11 205 1.0
e 11 84 1.0
e 11 175 1.0
e 11 20 1.0
e 11 150 1.0
e 12 80 1.0
e 12 258 1.0
e 12 96 2.0
e 12 146 1.0
e 12 116 1.0
e 12 318 2.0
e 12 99 10.0
e 12 50 1.0
e 13 263 35.0
e 13 113 20.0
e 13 230 23.0
e 13 12 42.0
e 13 97 6.0
e 13 158 39.0
e 13 296 23.0
e 13 5 3.0
e 14 97 2.0
e 14 301 1.0
e 14 237 1.0
e 14 55 1.0
e 14 171 1.0
e 14 226 2.0
e 14 74 35.0
e 14 307 2.0
e 15 257 1.0
e 15 265 2.0
e 15 134 1.0
e 15 250 2.0
e 15 45 1.0
e 15 264 1.0
e 15 180 2.0
e 15 305 2.0
e 16 78 1.0
e 16 288 1.0
e 16 20 1.0
e 16 241 3.0
e 16 284 9.0
e 16 299 39.0
e 16 25 1.0
e 16 197 1.0
e 17 115 1.0
e 17 199 1.0
e 17 241 29.0
e 17 205 2.0
e 17 226 1.0
e 17 26 1.0
e 17 99 18.0
e 17 147 1.0
e 18 73 1.0
e 18 65 14.0
e 18 178 25.0
e 18 92 1.0
e 18 315 1.0
e 18 268 1.0
e 18 218 1.0
e 18 270 1.0
e 19 7 21.0
e 19 207 26.0
e 19 201 9.0
e 19 124 18.0
e 19 164 19.0
e 19 26 22.0
e 19 81 26.0
e 19 299 18.0
e 20 126 5.0
e 20 238 1.0
e 20 149 6.0
e 20 260 1.0
e 20 97 1.0
e 20 71 1.0
e 20 191 27.0
e 20 82 1.0
e 21 214 1.0
e 21 76 1.0
e 21 313 1.0
e 21 50 1.0
e 21 164 1.0
e 21 212 1.0
e 21 113 42.0
e 21 191 9.0
e 22 68 2.0
e 22 31 1.0
e 22 260 1.0
e 22 297 10.0
e 22 269 2.0
e 22 300 1.0
e 22 298 1.0
e 22 191 20.0
e 23 194 46.0
e 23 198 1.0
e 23 82 1.0
e 23 260 1.0
e 23 46 1.0
e 23 19 32.0
e 23 38 1.0
e 23 27 2.0
e 24 51 2.0
e 24 16 1.0
e 24 242 1.0
e 24 281 1.0
e 24 244 1.0
e 24 175 1.0
e 24 69 1.0
e 24 84 1.0
e 25 318 2.0
e 25 0 1.0
e 25 187 1.0
e 25 140 1.0
e 25 24 1.0
e 25 233 40.0
e 25 41 1.0
e 25 165 6.0
e 26 180 1.0
e 26 89 1.0
e 26 188 1.0
e 26 38 1.0
e 26 249 36.0
e 26 308 1.0
e 26 197 1.0
e 26 273 1.0
e 27 15 2.0
e 27 91 2.0
e 27 12 2.0
e 27 310 1.0
e 27 254 2.0
e 27 288 1.0
e 27 148 1.0
e 28 246 1.0
e 28 160 1.0
e 28 128 22.0
e 28 207 1.0
e 28 65 7.0
e 28 172 1.0
e 28 100 49.0
e 28 41 1.0
e 29 217 1.0
e 29 36 1.0
e 29 111 1.0
e 29 123 1.0
e 29 97 1.0
e 29 30 1.0
e 29 75 1.0
e 29 14 1.0
e 30 110 1.0
e 30 235 2.0
e 30 124 1.0
e 30 18 1.0
e 30 33 1.0
e 30 86 1.0
e 30 207 1.0
e 30 143 1.0
e 31 88 1.0
e 31 126 47.0
e 31 137 1.0
e 31 276 1.0
e 31 205 1.0
e 31 122 1.0
e 31 291 1.0
e 31 232 2.0
e 32 197 1.0
e 32 12 1.0
e 32 179 1.0
e 32 257 1.0
e 32 294 2.0
e 32 301 1.0
e 32 210 1.0
e 32 56 1.0
e 33 298 1.0
e 33 121 1.0
e 33 299 21.0
e 33 193 1.0
e 33 268 1.0
e 33 76 2.0
e 33 0 1.0
e 33 218 1.0
e 34 207 1.0
e 34 19 14.0
e 34 269 1.0
e 34 91 1.0
e 34 80 1.0
e 34 148 2.0
e 34 125 1.0
e 34 205 1.0
e 35 237 1.0
e 35 90 1.0
e 35 107 1.0
e 35 264 2.0
e 35 293 2.0
e 35 129 1.0
e 35 69 1.0
e 35 210 1.0
e 36 263 1.0
e 36 299 41.0
e 36 316 1.0
e 36 125 1.0
e 36 185 1.0
e 36 177 1.0
e 36 208 1.0
e 36 269 37.0
e 37 162 1.0
e 37 7 6.0
e 37 176 1.0
e 37 27 2.0
e 37 177 1.0
e 37 50 1.0
e 37 302 11.0
e 37 252 1.0
e 38 85 3.0
e 38 58 1.0
e 38 306 34.0
e 38 25 2.0
e 38 70 1.0
e 38 173 2.0
e 38 268 1.0
e 38 32 2.0
e 39 266 1.0
e 39 169 1.0
e 39 313 1.0
e 39 275 2.0
e 39 303 2.0
e 39 284 34.0
e 39 3 2.0
e 40 289 1.0
e 40 149 26.0
e 40 16 47.0
e 40 32 16.0
e 40 199 16.0
e 40 4 41.0
e 40 45 43.0
e 40 108 36.0
e 41 225 1.0
e 41 260 1.0
e 41 307 1.0
e 41 263 1.0
e 41 44 1.0
e 41 234 18.0
e 41 209 1.0
e 41 38 2.0
e 42 201 42.0
e 42 121 43.0
e 42 59 5.0
e 42 7 31.0
e 42 217 34.0
e 42 63 48.0
e 42 297 6.0
e 42 193 8.0
e 43 5 31.0
e 43 63 26.0
e 43 35 46.0
e 43 178 23.0
e 43 223 10.0
e 43 285 22.0
e 43 127 27.0
e 43 247 33.0
e 44 28 1.0
e 44 19 19.0
e 44 123 3.0
e 44 303 1.0
e 44 215 1.0
e 44 266 1.0
e 44 197 1.0
e 44 29 1.0
e 45 135 1.0
e 45 101 1.0
e 45 21 1.0
e 45 112 1.0
e 45 196 1.0
e 45 147 1.0
e 45 208 1.0
e 45 303 1.0
e 46 76 1.0
e 46 53 1.0
e 46 306 13.0
e 46 33 1.0
e 46 242 1.0
e 46 202 1.0
e 46 63 1.0
e 46 148 1.0
e 47 11 1.0
e 47 92 1.0
e 47 5 1.0
e 47 9 1.0
e 47 151 1.0
e 47 220 1.0
e 47 3 1.0
e 48 24 1.0
e 48 165 42.0
e 48 211 1.0
e 48 71 1.0
e 48 73 1.0
e 48 135 1.0
e 48 88 1.0
e 48 23 1.0
e 49 171 1.0
e 49 303 1.0
e 49 292 1.0
e 49 261 1.0
e 49 272 1.0
e 49 93 1.0
e 49 73 1.0
e 49 68 1.0
e 50 135 1.0
e 50 134 1.0
e 50 34 1.0
e 50 270 1.0
e 50 13 46.0
e 50 218 1.0
e 50 20 1.0
e 50 38 1.0
e 51 28 1.0
e 51 186 33.0
e 51 300 1.0
e 51 77 2.0
e 51 277 2.0
e 51 238 2.0
e 51 60 2.0
e 52 139 1.0
e 52 45 1.0
e 52 81 1.0
e 52 66 1.0
e 52 269 39.0
e 52 233 13.0
e 52 101 1.0
e 53 144 1.0
e 53 230 1.0
e 53 121 1.0
e 53 122 1.0
e 53 85 1.0
e 53 176 1.0
e 53 55 1.0
e 53 206 1.0
e 54 69 1.0
e 54 108 1.0
e 54 21 1.0
e 54 294 1.0
e 54 202 1.0
e 54 123 2.0
e 54 251 1.0
e 54 201 1.0
e 55 30 1.0
e 55 13 5.0
e 55 70 1.0
e 55 113 33.0
e 55 314 1.0
e 55 255 1.0
e 55 306 46.0
e 55 137 1.0
e 56 195 41.0
e 56 178 47.0
e 56 314 1.0
e 56 254 1.0
e 56 226 2.0
e 56 82 1.0
e 56 136 1.0
e 56 120 1.0
e 57 11 2.0
e 57 237 1.0
e 57 46 1.0
e 57 183 1.0
e 57 56 1.0
e 57 104 1.0
e 57 137 2.0
e 57 207 1.0
e 58 166 1.0
e 58 185 1.0
e 58 45 1.0
e 58 21 1.0
e 58 64 1.0
e 58 292 2.0
e 58 167 2.0
e 58 296 1.0
e 59 173 1.0
e 59 72 3.0
e 59 246 2.0
e 59 37 1.0
e 59 213 1.0
e 59 318 2.0
e 59 147 1.0
e 60 279 2.0
e 60 120 1.0
e 60 159 2.0
e 60 177 2.0
e 60 246 1.0
e 60 315 2.0
e 60 306 4.0
e 60 80 1.0
e 61 223 1.0
e 61 121 1.0
e 61 297 5.0
e 61 188 1.0
e 61 313 1.0
e 61 76 1.0
e 61 145 2.0
e 61 118 1.0
e 62 44 1.0
e 62 169 1.0
e 62 85 1.0
e 62 60 1.0
e 62 150 1.0
e 62 305 1.0
e 62 234 16.0
e 62 64 1.0
e 63 37 1.0
e 63 97 2.0
e 63 217 1.0
e 63 194 41.0
e 63 300 1.0
e 63 188 1.0
e 63 166 1.0
e 63 41 1.0
e 64 111 1.0
e 64 256 1.0
e 64 8 1.0
e 64 194 39.0
e 64 81 1.0
e 64 18 1.0
e 64 277 1.0
e 64 302 27.0
e 65 66 17.0
e 65 268 37.0
e 65 132 9.0
e 65 170 3.0
e 65 216 33.0
e 65 239 39.0
e 65 29 42.0
e 65 215 37.0
e 66 121 1.0
e 66 39 2.0
e 66 232 1.0
e 66 249 36.0
e 66 213 1.0
e 66 246 1.0
e 66 143 1.0
e 66 257 1.0
e 67 304 1.0
e 67 11 1.0
e 67 250 1.0
e 67 121 1.0
e 67 140 1.0
e 67 290 1.0
e 67 178 10.0
e 67 126 7.0
e 68 72 2.0
e 68 56 2.0
e 68 240 1.0
e 68 138 1.0
e 68 312 1.0
e 68 305 2.0
e 68 315 1.0
e 68 286 1.0
e 69 311 1.0
e 69 142 1.0
e 69 242 1.0
e 69 209 1.0
e 69 74 16.0
e 69 257 1.0
e 69 141 1.0
e 69 181 1.0
e 70 281 1.0
e 70 256 1.0
e 70 151 1.0
e 70 272 1.0
e 70 33 2.0
e 70 119 1.0
e 70 34 1.0
e 70 286 1.0
e 71 100 3.0
e 71 11 1.0
e 71 116 1.0
e 71 297 16.0
e 71 153 1.0
e 71 4 1.0
e 71 174 1.0
e 71 151 1.0
e 72 132 1.0
e 72 142 2.0
e 72 196 2.0
e 72 317 1.0
e 72 259 2.0
e 72 158 1.0
e 72 58 2.0
e 72 188 2.0
e 73 196 1.0
e 73 149 45.0
e 73 143 1.0
e 73 290 1.0
e 73 2 1.0
e 73 4 1.0
e 73 56 1.0
e 74 217 15.0
e 74 10 17.0
e 74 223 24.0
e 74 159 24.0
e 74 224 1.0
e 74 233 33.0
e 74 302 41.0
e 74 195 10.0
e 75 57 1.0
e 75 235 2.0
e 75 156 2.0
e 75 294 1.0
e 75 217 1.0
e 75 92 1.0
e 75 141 1.0
e 75 214 1.0
e 76 16 1.0
e 76 152 3.0
e 76 222 1.0
e 76 280 23.0
e 76 189 1.0
e 76 213 1.0
e 76 227 1.0
e 76 257 1.0
e 77 112 1.0
e 77 291 1.0
e 77 255 2.0
e 77 46 2.0
e 77 147 2.0
e 77 156 2.0
e 77 42 25.0
e 77 177 1.0
e 78 258 1.0
e 78 66 1.0
e 78 103 1.0
e 78 300 1.0
e 78 316 1.0
e 78 235 1.0
e 78 124 1.0
e 78 1 1.0
e 79 307 1.0
e 79 60 1.0
e 79 159 1.0
e 79 220 1.0
e 79 0 1.0
e 79 271 3.0
e 79 162 1.0
e 79 118 1.0
e 80 136 1.0
e 80 33 1.0
e 80 113 46.0
e 80 141 1.0
e 80 40 39.0
e 80 180 1.0
e 80 283 2.0
e 80 103 1.0
e 81 142 1.0
e 81 250 1.0
e 81 193 1.0
e 81 128 18.0
e 81 313 1.0
e 81 308 1.0
e 81 206 1.0
e 81 215 1.0
e 82 55 1.0
e 82 172 1.0
e 82 33 1.0
e 82 100 37.0
e 82 118 1.0
e 82 167 1.0
e 82 163 1.0
e 82 274 1.0
e 83 264 1.0
e 83 305 1.0
e 83 32 1.0
e 83 80 1.0
e 83 5 1.0
e 83 271 1.0
e 83 148 1.0
e 83 29 2.0
e 84 149 45.0
e 84 188 1.0
e 84 104 1.0
e 84 184 35.0
e 84 226 2.0
e 84 278 2.0
e 84 131 1.0
e 84 194 45.0
e 85 212 1.0
e 85 218 1.0
e 85 3 1.0
e 85 219 1.0
e 85 290 1.0
e 85 54 1.0
e 85 79 2.0
e 85 94 1.0
e 86 185 1.0
e 86 212 1.0
e 86 194 18.0
e 86 157 1.0
e 86 68 1.0
e 86 190 1.0
e 86 81 1.0
e 86 58 2.0
e 87 250 1.0
e 87 59 1.0
e 87 82 1.0
e 87 280 45.0
e 87 202 1.0
e 87 149 26.0
e 87 105 1.0
e 87 99 6.0
e 88 298 2.0
e 88 262 46.0
e 88 166 1.0
e 88 53 1.0
e 88 121 1.0
e 88 240 2.0
e 88 106 33.0
e 88 210 1.0
e 89 56 1.0
e 89 297 5.0
e 89 261 1.0
e 89 59 2.0
e 89 117 1.0
e 89 247 2.0
e 89 123 2.0
e 89 84 1.0
e 90 136 1.0
e 90 157 1.0
e 90 281 1.0
e 90 221 1.0
e 90 270 1.0
e 90 198 1.0
e 90 234 14.0
e 90 207 1.0
e 91 217 1.0
e 91 31 1.0
e 91 38 2.0
e 91 142 2.0
e 91 11 1.0
e 91 295 1.0
e 91 317 1.0
e 91 21 1.0
e 92 281 1.0
e 92 2 1.0
e 92 156 1.0
e 92 65 16.0
e 92 3 1.0
e 92 99 29.0
e 92 118 1.0
e 92 244 1.0
e 93 173 1.0
e 93 75 1.0
e 93 262 30.0
e 93 36 2.0
e 93 222 1.0
e 93 119 1.0
e 93 155 1.0
e 93 38 1.0
e 94 271 1.0
e 94 168 1.0
e 94 80 1.0
e 94 258 1.0
e 94 128 45.0
e 94 313 1.0
e 94 174 1.0
e 94 235 1.0
e 95 7 21.0
e 95 97 1.0
e 95 260 1.0
e 95 112 1.0
e 95 163 1.0
e 95 33 1.0
e 95 312 1.0
e 95 39 1.0
e 96 208 1.0
e 96 177 2.0
e 96 175 2.0
e 96 251 2.0
e 96 32 1.0
e 96 264 1.0
e 96 269 47.0
e 97 208 2.0
e 97 152 2.0
e 97 60 1.0
e 97 193 2.0
e 97 201 3.0
e 97 35 2.0
e 97 32 1.0
e 97 61 1.0
e 98 223 1.0
e 98 57 1.0
e 98 48 1.0
e 98 294 1.0
e 98 234 22.0
e 98 82 1.0
e 98 27 2.0
e 98 217 1.0
e 99 180 44.0
e 99 286 35.0
e 99 183 1.0
e 99 208 11.0
e 99 227 43.0
e 99 217 45.0
e 99 5 46.0
e 99 207 10.0
e 100 40 49.0
e 100 202 12.0
e 100 4 4.0
e 100 81 33.0
e 100 84 8.0
e 100 297 45.0
e 100 230 27.0
e 101 63 1.0
e 101 256 1.0
e 101 48 1.0
e 101 169 1.0
e 101 223 1.0
e 101 16 1.0
e 101 188 1.0
e 102 6 1.0
e 102 78 1.0
e 102 298 3.0
e 102 74 23.0
e 102 94 1.0
e 102 53 2.0
e 102 182 2.0
e 102 127 1.0
e 103 107 1.0
e 103 295 1.0
e 103 244 2.0
e 103 190 1.0
e 103 277 1.0
e 103 26 1.0
e 103 138 2.0
e 103 23 1.0
e 104 261 2.0
e 104 26 1.0
e 104 52 1.0
e 104 223 1.0
e 104 49 1.0
e 104 112 1.0
e 104 209 1.0
e 105 285 1.0
e 105 316 1.0
e 105 274 1.0
e 105 95 2.0
e 105 140 1.0
e 105 313 1.0
e 105 268 1.0
e 105 196 1.0
e 106 145 41.0
e 106 169 12.0
e 106 61 45.0
e 106 162 39.0
e 106 54 12.0
e 106 197 8.0
e 106 204 7.0
e 106 174 22.0
e 107 261 1.0
e 107 18 1.0
e 107 242 1.0
e 107 23 1.0
e 107 235 2.0
e 107 110 1.0
e 107 112 1.0
e 107 97 3.0
e 108 64 1.0
e 108 263 1.0
e 108 3 1.0
e 108 136 1.0
e 108 145 2.0
e 108 168 1.0
e 108 93 1.0
e 109 262 10.0
e 109 77 1.0
e 109 7 36.0
e 109 199 1.0
e 109 255 1.0
e 109 91 1.0
e 109 202 1.0
e 109 302 12.0
e 110 183 1.0
e 110 143 1.0
e 110 127 1.0
e 110 169 2.0
e 110 46 1.0
e 110 182 2.0
e 110 209 1.0
e 110 100 41.0
e 111 33 3.0
e 111 50 1.0
e 111 228 1.0
e 111 276 1.0
e 111 165 17.0
e 111 67 1.0
e 111 77 1.0
e 111 205 2.0
e 112 262 21.0
e 112 78 1.0
e 112 252 2.0
e 112 229 1.0
e 112 285 1.0
e 112 278 1.0
e 112 153 1.0
e 112 188 1.0
e 113 82 36.0
e 113 210 44.0
e 113 160 34.0
e 113 309 8.0
e 113 27 28.0
e 113 257 16.0
e 113 100 27.0
e 113 40 33.0
e 114 24 1.0
e 114 207 1.0
e 114 162 1.0
e 114 317 1.0
e 114 146 1.0
e 114 15 2.0
e 114 259 1.0
e 114 175 1.0
e 115 136 1.0
e 115 53 1.0
e 115 157 1.0
e 115 308 1.0
e 115 251 1.0
e 115 275 1.0
e 115 226 2.0
e 115 230 1.0
e 116 175 2.0
e 116 3 1.0
e 116 112 1.0
e 116 229 1.0
e 116 151 1.0
e 116 208 1.0
e 116 200 18.0
e 116 52 1.0
e 117 140 2.0
e 117 317 2.0
e 117 316 2.0
e 117 274 2.0
e 117 25 2.0
e 117 170 1.0
e 117 142 1.0
e 117 122 1.0
e 118 39 2.0
e 118 112 1.0
e 118 48 1.0
e 118 181 1.0
e 118 37 1.0
e 118 274 1.0
e 118 252 1.0
e 118 199 1.0
e 119 202 1.0
e 119 226 1.0
e 119 64 1.0
e 119 67 1.0
e 119 206 1.0
e 119 51 1.0
e 119 73 1.0
e 120 27 1.0
e 120 85 1.0
e 120 181 1.0
e 120 307 1.0
e 120 271 1.0
e 120 73 1.0
e 120 190 1.0
e 120 118 1.0
e 121 272 1.0
e 121 262 36.0
e 121 280 9.0
e 121 285 1.0
e 121 191 15.0
e 121 219 1.0
e 121 29 2.0
e 122 289 1.0
e 122 146 1.0
e 122 237 1.0
e 122 280 26.0
e 122 70 1.0
e 122 54 1.0
e 122 305 1.0
e 122 204 37.0
e 123 314 1.0
e 123 18 2.0
e 123 57 1.0
e 123 85 1.0
e 123 277 1.0
e 123 293 2.0
e 123 250 1.0
e 123 267 1.0
e 124 8 1.0
e 124 276 1.0
e 124 220 1.0
e 124 267 1.0
e 124 100 34.0
e 124 85 1.0
e 124 118 1.0
e 124 247 1.0
e 125 127 2.0
e 125 179 2.0
e 125 48 1.0
e 125 184 8.0
e 125 3 2.0
e 125 176 1.0
e 125 37 2.0
e 125 131 2.0
e 126 303 25.0
e 126 233 31.0
e 126 167 15.0
e 126 113 6.0
e 126 236 22.0
e 126 23 39.0
e 126 192 38.0
e 126 221 46.0
e 127 172 1.0
e 127 70 1.0
e 127 304 1.0
e 127 307 1.0
e 127 201 1.0
e 127 253 1.0
e 127 238 1.0
e 127 157 1.0
e 128 286 32.0
e 128 76 17.0
e 128 43 17.0
e 128 5 35.0
e 128 272 47.0
e 128 289 2.0
e 128 131 16.0
e 128 65 44.0
e 129 31 1.0
e 129 77 1.0
e 129 263 1.0
e 129 259 1.0
e 129 79 1.0
e 129 59 1.0
e 129 219 1.0
e 129 65 12.0
e 130 10 26.0
e 130 21 1.0
e 130 53 1.0
e 130 202 1.0
e 130 308 1.0
e 130 193 2.0
e 130 138 3.0
e 130 240 1.0
e 131 192 1.0
e 131 207 1.0
e 131 195 47.0
e 131 69 1.0
e 131 202 1.0
e 131 120 1.0
e 131 119 1.0
e 131 208 1.0
e 132 232 1.0
e 132 189 1.0
e 132 247 1.0
e 132 57 2.0
e 132 136 1.0
e 132 206 1.0
e 132 203 2.0
e 132 135 1.0
e 133 7 23.0
e 133 247 1.0
e 133 32 1.0
e 133 287 1.0
e 133 167 1.0
e 133 134 1.0
e 133 204 45.0
e 133 168 1.0
e 134 258 1.0
e 134 179 1.0
e 134 206 2.0
e 134 252 2.0
e 134 241 34.0
e 134 255 1.0
e 134 245 8.0
e 134 212 1.0
e 135 101 1.0
e 135 265 1.0
e 135 237 1.0
e 135 37 1.0
e 135 301 1.0
e 135 279 1.0
e 135 78 1.0
e 135 77 1.0
e 136 59 1.0
e 136 15 1.0
e 136 116 1.0
e 136 209 1.0
e 136 148 1.0
e 136 196 1.0
e 136 21 1.0
e 137 118 1.0
e 137 175 2.0
e 137 74 25.0
e 137 51 1.0
e 137 310 1.0
e 137 212 1.0
e 137 37 1.0
e 138 300 1.0
e 138 101 1.0
e 138 164 1.0
e 138 147 1.0
e 138 268 2.0
e 138 93 1.0
e 138 126 42.0
e 138 14 1.0
e 139 236 1.0
e 139 3 1.0
e 139 308 1.0
e 139 163 1.0
e 139 66 1.0
e 139 229 1.0
e 139 255 1.0
e 139 304 1.0
e 140 64 1.0
e 140 187 2.0
e 140 190 1.0
e 140 30 1.0
e 140 0 1.0
e 140 156 1.0
e 140 22 1.0
e 141 118 1.0
e 141 83 1.0
e 141 110 1.0
e 141 177 1.0
e 141 195 5.0
e 141 186 20.0
e 141 250 1.0
e 141 82 1.0
e 142 266 1.0
e 142 287 2.0
e 142 26 1.0
e 142 90 1.0
e 142 89 2.0
e 142 173 2.0
e 142 118 1.0
e 142 288 1.0
e 143 62 1.0
e 143 107 1.0
e 143 224 1.0
e 143 132 1.0
e 143 279 2.0
e 143 172 1.0
e 143 122 1.0
e 143 278 1.0
e 144 117 2.0
e 144 318 1.0
e 144 154 2.0
e 144 58 1.0
e 144 151 1.0
e 144 172 2.0
e 144 298 2.0
e 144 56 1.0
e 145 192 3.0
e 145 167 2.0
e 145 85 1.0
e 145 77 2.0
e 145 37 2.0
e 145 49 2.0
e 145 32 2.0
e 145 87 2.0
e 146 225 1.0
e 146 150 1.0
e 146 298 1.0
e 146 7 22.0
e 146 104 1.0
e 146 186 22.0
e 146 258 1.0
e 146 227 1.0
e 147 10 6.0
e 147 110 2.0
e 147 243 1.0
e 147 103 1.0
e 147 107 1.0
e 147 127 1.0
e 147 8 1.0
e 147 241 43.0
e 148 268 2.0
e 148 248 2.0
e 148 30 2.0
e 148 262 20.0
e 148 70 1.0
e 148 77 2.0
e 148 261 1.0
e 149 54 49.0
e 149 116 40.0
e 149 316 45.0
e 149 137 17.0
e 149 100 5.0
e 149 69 5.0
e 149 186 12.0
e 149 90 18.0
e 150 315 1.0
e 150 275 3.0
e 150 237 2.0
e 150 284 16.0
e 150 169 1.0
e 150 44 1.0
e 150 25 1.0
e 150 261 1.0
e 151 171 1.0
e 151 14 2.0
e 151 101 1.0
e 151 103 1.0
e 151 89 1.0
e 151 168 1.0
e 151 193 1.0
e 151 1 1.0
e 152 59 1.0
e 152 26 1.0
e 152 154 1.0
e 152 207 1.0
e 152 25 1.0
e 152 269 16.0
e 152 282 2.0
e 152 185 1.0
e 153 120 1.0
e 153 176 1.0
e 153 289 1.0
e 153 104 1.0
e 153 266 1.0
e 153 22 1.0
e 153 301 1.0
e 153 240 1.0
e 154 60 2.0
e 154 43 27.0
e 154 25 1.0
e 154 229 1.0
e 154 68 3.0
e 154 170 1.0
e 154 125 1.0
e 154 296 1.0
e 155 126 24.0
e 155 172 1.0
e 155 246 1.0
e 155 167 2.0
e 155 136 1.0
e 155 148 2.0
e 155 81 1.0
e 155 235 3.0
e 156 87 1.0
e 156 106 2.0
e 156 249 4.0
e 156 289 1.0
e 156 21 1.0
e 156 33 2.0
e 156 178 35.0
e 156 28 1.0
e 157 302 22.0
e 157 79 1.0
e 157 276 1.0
e 157 117 1.0
e 157 74 27.0
e 157 233 44.0
e 157 264 1.0
e 157 71 1.0
e 158 62 2.0
e 158 171 1.0
e 158 296 1.0
e 158 203 1.0
e 158 240 1.0
e 158 71 1.0
e 158 283 2.0
e 158 54 1.0
e 159 84 2.0
e 159 55 1.0
e 159 52 1.0
e 159 171 2.0
e 159 8 1.0
e 159 259 2.0
e 159 281 2.0
e 159 307 1.0
e 160 186 30.0
e 160 108 1.0
e 160 103 1.0
e 160 253 1.0
e 160 221 1.0
e 160 138 3.0
e 160 135 1.0
e 160 183 1.0
e 161 290 47.0
e 161 190 9.0
e 161 101 7.0
e 161 78 9.0
e 161 219 28.0
e 161 55 10.0
e 161 304 39.0
e 161 8 29.0
e 162 117 2.0
e 162 258 1.0
e 162 160 1.0
e 162 297 6.0
e 162 7 42.0
e 162 137 1.0
e 162 240 1.0
e 163 199 1.0
e 163 238 1.0
e 163 125 1.0
e 163 283 1.0
e 163 71 1.0
e 163 185 1.0
e 163 26 1.0
e 163 106 13.0
e 164 155 1.0
e 164 12 1.0
e 164 202 1.0
e 164 297 38.0
e 164 96 1.0
e 164 186 7.0
e 164 137 1.0
e 164 163 1.0
e 165 112 31.0
e 165 65 15.0
e 165 258 42.0
e 165 237 7.0
e 165 123 41.0
e 165 71 8.0
e 166 266 1.0
e 166 299 6.0
e 166 38 2.0
e 166 111 1.0
e 166 147 1.0
e 166 216 1.0
e 166 279 1.0
e 166 98 1.0
e 167 104 1.0
e 167 87 2.0
e 167 132 2.0
e 167 213 2.0
e 167 52 1.0
e 167 224 1.0
e 167 305 1.0
e 167 11 1.0
e 168 100 17.0
e 168 10 30.0
e 168 254 1.0
e 168 287 1.0
e 168 300 1.0
e 168 258 1.0
e 168 264 2.0
e 168 253 1.0
e 169 233 7.0
e 169 305 1.0
e 169 262 12.0
e 169 178 21.0
e 169 267 1.0
e 169 194 28.0
e 169 208 1.0
e 169 277 1.0
e 170 125 1.0
e 170 138 1.0
e 170 78 1.0
e 170 232 1.0
e 170 88 1.0
e 170 90 1.0
e 170 155 1.0
e 171 34 1.0
e 171 207 1.0
e 171 52 1.0
e 171 167 2.0
e 171 275 1.0
e 171 187 1.0
e 172 286 1.0
e 172 97 2.0
e 172 129 1.0
e 172 1 2.0
e 172 50 2.0
e 172 192 1.0
e 172 318 2.0
e 172 154 1.0
e 173 113 37.0
e 173 68 2.0
e 173 297 17.0
e 173 205 1.0
e 173 2 1.0
e 173 304 1.0
e 173 282 1.0
e 174 112 1.0
e 174 81 1.0
e 174 123 1.0
e 174 172 1.0
e 174 225 1.0
e 174 204 1.0
e 174 18 1.0
e 174 246 1.0
e 175 134 1.0
e 175 190 1.0
e 175 63 1.0
e 175 75 1.0
e 175 252 1.0
e 175 307 1.0
e 175 313 1.0
e 175 9 2.0
e 176 93 1.0
e 176 309 1.0
e 176 289 1.0
e 176 128 34.0
e 176 50 1.0
e 176 155 1.0
e 176 51 2.0
e 176 78 1.0
e 177 78 1.0
e 177 198 1.0
e 177 265 1.0
e 177 181 1.0
e 177 225 1.0
e 177 256 1.0
e 177 160 1.0
e 178 144 30.0
e 178 23 26.0
e 178 111 27.0
e 178 41 5.0
e 178 112 13.0
e 178 73 34.0
e 178 50 6.0
e 179 88 1.0
e 179 64 1.0
e 179 259 1.0
e 179 178 41.0
e 179 180 1.0
e 179 83 1.0
e 179 299 25.0
e 180 19 3.0
e 180 33 2.0
e 180 8 1.0
e 180 183 1.0
e 180 132 1.0
e 180 171 1.0
e 180 85 1.0
e 180 299 37.0
e 181 115 1.0
e 181 239 1.0
e 181 105 1.0
e 181 155 1.0
e 181 160 1.0
e 181 70 1.0
e 181 185 1.0
e 181 236 1.0
e 182 86 2.0
e 182 197 2.0
e 182 295 1.0
e 182 200 8.0
e 182 22 1.0
e 182 26 1.0
e 182 211 2.0
e 182 300 1.0
e 183 318 1.0
e 183 198 1.0
e 183 133 1.0
e 183 51 1.0
e 183 261 1.0
e 183 126 23.0
e 183 2 1.0
e 183 30 1.0
e 184 78 39.0
e 184 193 1.0
e 184 68 3.0
e 184 189 10.0
e 184 303 26.0
e 184 297 13.0
e 184 296 5.0
e 184 176 37.0
e 185 18 1.0
e 185 134 1.0
e 185 283 2.0
e 185 289 1.0
e 185 234 37.0
e 185 2 1.0
e 185 305 1.0
e 185 179 1.0
e 186 82 17.0
e 186 2 29.0
e 186 204 45.0
e 186 198 9.0
e 186 116 37.0
e 186 216 13.0
e 186 297 32.0
e 186 37 8.0
e 187 139 1.0
e 187 98 1.0
e 187 138 1.0
e 187 14 1.0
e 187 94 1.0
e 187 155 1.0
e 187 107 1.0
e 187 156 1.0
e 188 95 1.0
e 188 308 1.0
e 188 125 1.0
e 188 67 1.0
e 188 9 2.0
e 188 209 1.0
e 188 227 1.0
e 188 31 1.0
e 189 271 1.0
e 189 162 1.0
e 189 165 2.0
e 189 161 29.0
e 189 234 36.0
e 189 129 1.0
e 189 307 1.0
e 189 225 1.0
e 190 313 1.0
e 190 286 1.0
e 190 75 1.0
e 190 77 1.0
e 190 251 1.0
e 190 201 1.0
e 190 210 1.0
e 191 153 13.0
e 191 224 17.0
e 191 37 47.0
e 191 163 35.0
e 191 192 49.0
e 191 94 8.0
e 191 15 15.0
e 192 23 1.0
e 192 7 37.0
e 192 15 1.0
e 192 157 1.0
e 192 64 1.0
e 192 197 1.0
e 192 278 2.0
e 192 41 1.0
e 193 248 1.0
e 193 25 1.0
e 193 270 1.0
e 193 9 1.0
e 193 271 1.0
e 193 285 2.0
e 193 38 2.0
e 194 317 5.0
e 194 48 10.0
e 194 158 2.0
e 194 181 35.0
e 194 224 26.0
e 194 59 4.0
e 194 215 1.0
e 194 219 33.0
e 195 249 23.0
e 195 79 24.0
e 195 75 29.0
e 195 179 25.0
e 195 277 13.0
e 195 140 15.0
e 195 201 45.0
e 195 224 49.0
e 196 97 1.0
e 196 192 1.0
e 196 56 1.0
e 196 49 1.0
e 196 284 25.0
e 196 223 1.0
e 196 71 1.0
e 196 242 1.0
e 197 20 1.0
e 197 194 17.0
e 197 73 1.0
e 197 306 33.0
e 197 37 1.0
e 197 218 1.0
e 197 164 1.0
e 197 66 1.0
e 198 55 1.0
e 198 200 15.0
e 198 246 1.0
e 198 303 1.0
e 198 208 1.0
e 198 283 1.0
e 198 236 1.0
e 198 58 1.0
e 199 241 6.0
e 199 32 1.0
e 199 162 1.0
e 199 112 1.0
e 199 297 12.0
e 199 157 1.0
e 199 139 1.0
e 199 186 48.0
e 200 127 6.0
e 200 262 7.0
e 200 300 45.0
e 200 162 19.0
e 200 106 44.0
e 200 114 42.0
e 200 40 19.0
e 201 60 1.0
e 201 70 1.0
e 201 280 34.0
e 201 47 1.0
e 201 27 1.0
e 201 173 1.0
e 201 297 6.0
e 202 290 1.0
e 202 163 1.0
e 202 193 1.0
e 202 241 9.0
e 202 127 1.0
e 202 314 1.0
e 202 283 1.0
e 202 4 1.0
e 203 89 2.0
e 203 72 2.0
e 203 14 1.0
e 203 179 1.0
e 203 146 1.0
e 203 40 35.0
e 203 193 1.0
e 204 272 2.0
e 204 142 20.0
e 204 247 43.0
e 204 34 42.0
e 204 234 20.0
e 204 210 4.0
e 204 158 9.0
e 205 260 1.0
e 205 50 3.0
e 205 291 1.0
e 205 18 1.0
e 205 182 1.0
e 205 121 1.0
e 205 265 1.0
e 205 233 11.0
e 206 291 1.0
e 206 51 2.0
e 206 70 2.0
e 206 36 2.0
e 206 276 1.0
e 206 83 2.0
e 206 109 2.0
e 206 257 1.0
e 207 45 1.0
e 207 249 22.0
e 207 6 1.0
e 207 146 1.0
e 207 214 1.0
e 207 129 1.0
e 207 48 1.0
e 207 136 1.0
e 208 140 1.0
e 208 296 1.0
e 208 277 1.0
e 208 303 1.0
e 208 311 1.0
e 208 205 1.0
e 208 316 1.0
e 208 42 36.0
e 209 133 1.0
e 209 241 38.0
e 209 211 1.0
e 209 89 1.0
e 209 0 1.0
e 209 244 1.0
e 209 272 1.0
e 209 197 1.0
e 210 269 14.0
e 210 161 3.0
e 210 9 1.0
e 210 70 1.0
e 210 38 2.0
e 210 240 1.0
e 210 84 1.0
e 210 277 1.0
e 211 266 1.0
e 211 215 1.0
e 211 49 1.0
e 211 10 22.0
e 211 37 1.0
e 211 30 1.0
e 211 312 1.0
e 211 221 1.0
e 212 214 1.0
e 212 121 1.0
e 212 306 5.0
e 212 69 1.0
e 212 118 1.0
e 212 259 2.0
e 212 186 14.0
e 212 223 1.0
e 213 165 30.0
e 213 263 1.0
e 213 277 1.0
e 213 109 1.0
e 213 19 27.0
e 213 18 1.0
e 213 231 12.0
e 214 68 2.0
e 214 203 1.0
e 214 293 2.0
e 214 85 1.0
e 214 229 1.0
e 214 188 1.0
e 214 200 38.0
e 214 72 1.0
e 215 274 1.0
e 215 204 49.0
e 215 43 30.0
e 215 313 1.0
e 215 265 1.0
e 215 309 1.0
e 215 114 1.0
e 215 207 1.0
e 216 311 1.0
e 216 288 1.0
e 216 64 1.0
e 216 8 1.0
e 216 223 1.0
e 216 244 2.0
e 216 301 1.0
e 216 278 1.0
e 217 3 1.0
e 217 203 2.0
e 217 165 35.0
e 217 67 1.0
e 217 209 1.0
e 217 148 1.0
e 217 284 29.0
e 217 208 1.0
e 218 105 1.0
e 218 223 1.0
e 218 169 1.0
e 218 123 1.0
e 218 116 1.0
e 218 195 34.0
e 218 220 1.0
e 218 144 2.0
e 219 317 1.0
e 219 241 10.0
e 219 158 1.0
e 219 28 1.0
e 219 136 1.0
e 219 298 2.0
e 219 145 2.0
e 219 104 1.0
e 220 245 1.0
e 220 268 1.0
e 220 50 1.0
e 220 180 1.0
e 220 239 2.0
e 220 62 1.0
e 220 109 1.0
e 220 86 1.0
e 221 102 3.0
e 221 23 1.0
e 221 120 1.0
e 221 295 1.0
e 221 110 1.0
e 221 101 1.0
e 221 200 49.0
e 221 96 1.0
e 222 134 1.0
e 222 203 1.0
e 222 59 1.0
e 222 275 1.0
e 222 311 1.0
e 222 153 1.0
e 222 0 1.0
e 222 46 1.0
e 223 292 1.0
e 223 182 1.0
e 223 256 1.0
e 223 221 1.0
e 223 162 1.0
e 223 85 1.0
e 223 260 1.0
e 224 288 1.0
e 224 142 1.0
e 224 208 1.0
e 224 291 1.0
e 224 287 1.0
e 224 205 2.0
e 224 315 1.0
e 224 309 1.0
e 225 156 1.0
e 225 280 25.0
e 225 130 2.0
e 225 246 2.0
e 225 141 1.0
e 225 276 1.0
e 225 51 1.0
e 225 222 1.0
e 226 20 1.0
e 226 272 2.0
e 226 209 2.0
e 226 99 14.0
e 226 230 1.0
e 226 68 2.0
e 226 199 2.0
e 226 255 2.0
e 227 260 1.0
e 227 109 1.0
e 227 74 17.0
e 227 304 1.0
e 227 17 1.0
e 227 169 1.0
e 227 208 1.0
e 227 141 1.0
e 228 306 24.0
e 228 21 1.0
e 228 227 1.0
e 228 279 1.0
e 228 172 1.0
e 228 167 2.0
e 228 261 2.0
e 229 272 1.0
e 229 102 1.0
e 229 168 1.0
e 229 3 1.0
e 229 81 1.0
e 229 95 2.0
e 230 206 3.0
e 230 243 1.0
e 230 291 1.0
e 230 174 1.0
e 230 152 1.0
e 230 289 1.0
e 230 188 1.0
e 230 11 1.0
e 231 108 45.0
e 231 274 28.0
e 231 45 41.0
e 231 270 2.0
e 231 155 25.0
e 231 314 32.0
e 231 278 2.0
e 231 225 26.0
e 232 98 2.0
e 232 246 3.0
e 232 242 2.0
e 232 78 2.0
e 232 271 2.0
e 232 137 2.0
e 232 295 2.0
e 232 200 1.0
e 233 307 47.0
e 233 114 28.0
e 233 289 4.0
e 233 11 1.0
e 233 198 13.0
e 233 245 6.0
e 233 241 9.0
e 234 181 29.0
e 234 196 6.0
e 234 111 27.0
e 234 113 29.0
e 234 272 48.0
e 234 269 30.0
e 234 174 28.0
e 234 61 11.0
e 235 166 1.0
e 235 131 2.0
e 235 17 1.0
e 235 89 1.0
e 235 308 2.0
e 235 214 2.0
e 235 201 1.0
e 235 242 3.0
e 236 93 1.0
e 236 278 2.0
e 236 169 1.0
e 236 263 1.0
e 236 128 7.0
e 236 32 1.0
e 236 105 1.0
e 236 230 1.0
e 237 29 2.0
e 237 151 2.0
e 237 307 1.0
e 237 41 1.0
e 237 300 1.0
e 237 308 1.0
e 237 82 1.0
e 237 46 2.0
e 238 263 1.0
e 238 151 1.0
e 238 10 33.0
e 238 313 1.0
e 238 227 1.0
e 238 152 1.0
e 238 312 1.0
e 238 206 1.0
e 239 216 2.0
e 239 309 1.0
e 239 305 2.0
e 239 140 1.0
e 239 79 1.0
e 239 298 2.0
e 239 313 1.0
e 239 173 1.0
e 240 257 1.0
e 240 70 3.0
e 240 271 1.0
e 240 58 2.0
e 240 60 3.0
e 240 14 1.0
e 240 106 47.0
e 241 238 13.0
e 241 177 43.0
e 241 214 11.0
e 241 55 10.0
e 241 217 49.0
e 241 261 41.0
e 241 220 44.0
e 241 175 40.0
e 242 58 1.0
e 242 19 39.0
e 242 51 1.0
e 242 190 1.0
e 242 38 1.0
e 242 205 1.0
e 242 40 45.0
e 242 108 1.0
e 243 13 24.0
e 243 225 1.0
e 243 10 3.0
e 243 181 1.0
e 243 88 1.0
e 243 71 1.0
e 243 260 1.0
e 243 239 1.0
e 244 0 1.0
e 244 124 3.0
e 244 261 1.0
e 244 22 2.0
e 244 242 1.0
e 244 200 10.0
e 244 294 2.0
e 244 185 2.0
e 245 185 29.0
e 245 65 48.0
e 245 291 49.0
e 245 209 47.0
e 245 32 47.0
e 245 191 17.0
e 245 189 9.0
e 245 235 41.0
e 246 49 1.0
e 246 301 2.0
e 246 289 1.0
e 246 184 5.0
e 246 62 2.0
e 246 274 2.0
e 246 33 1.0
e 246 58 1.0
e 247 282 1.0
e 247 91 2.0
e 247 265 1.0
e 247 225 1.0
e 247 65 45.0
e 247 60 1.0
e 247 106 32.0
e 247 66 1.0
e 248 113 8.0
e 248 26 1.0
e 248 130 1.0
e 248 111 1.0
e 248 98 1.0
e 248 241 20.0
e 248 41 1.0
e 249 206 44.0
e 249 268 3.0
e 249 173 29.0
e 249 283 33.0
e 249 72 8.0
e 249 112 21.0
e 249 109 49.0
e 249 55 8.0
e 250 44 2.0
e 250 146 1.0
e 250 262 5.0
e 250 130 1.0
e 250 173 1.0
e 250 27 1.0
e 250 275 1.0
e 250 97 1.0
e 251 93 1.0
e 251 122 1.0
e 251 215 1.0
e 251 256 1.0
e 251 169 1.0
e 251 220 1.0
e 251 272 1.0
e 252 130 2.0
e 252 128 30.0
e 252 46 2.0
e 252 142 1.0
e 252 314 1.0
e 252 212 1.0
e 252 116 1.0
e 252 53 3.0
e 253 266 1.0
e 253 293 1.0
e 253 267 1.0
e 253 150 2.0
e 253 201 1.0
e 253 77 1.0
e 253 164 1.0
e 253 80 1.0
e 254 253 1.0
e 254 157 1.0
e 254 262 33.0
e 254 241 20.0
e 254 69 1.0
e 254 89 2.0
e 254 187 1.0
e 254 162 1.0
e 255 114 1.0
e 255 266 1.0
e 255 212 1.0
e 255 105 1.0
e 255 262 10.0
e 255 110 1.0
e 255 225 1.0
e 256 155 1.0
e 256 287 1.0
e 256 97 1.0
e 256 93 1.0
e 256 78 1.0
e 256 213 1.0
e 256 282 1.0
e 256 65 3.0
e 257 128 14.0
e 257 19 3.0
e 257 176 1.0
e 257 222 1.0
e 257 258 1.0
e 257 231 2.0
e 257 275 1.0
e 257 312 1.0
e 258 194 38.0
e 258 15 2.0
e 258 227 1.0
e 258 117 1.0
e 258 128 48.0
e 258 75 2.0
e 258 282 1.0
e 259 123 1.0
e 259 254 2.0
e 259 278 1.0
e 259 147 1.0
e 259 290 1.0
e 259 209 1.0
e 259 275 1.0
e 259 161 32.0
e 260 247 1.0
e 260 257 1.0
e 260 312 1.0
e 260 292 1.0
e 260 136 1.0
e 260 240 2.0
e 260 11 1.0
e 260 13 41.0
e 261 41 1.0
e 261 130 1.0
e 261 156 1.0
e 261 80 2.0
e 261 105 1.0
e 261 75 1.0
e 261 193 1.0
e 261 270 2.0
e 262 288 47.0
e 262 177 4.0
e 262 69 48.0
e 262 217 39.0
e 262 46 13.0
e 262 26 44.0
e 262 78 37.0
e 262 132 13.0
e 263 230 1.0
e 263 208 1.0
e 263 35 2.0
e 263 100 9.0
e 263 270 1.0
e 263 65 7.0
e 263 19 15.0
e 264 50 2.0
e 264 31 1.0
e 264 152 3.0
e 264 231 48.0
e 264 244 1.0
e 264 81 2.0
e 265 19 9.0
e 265 254 1.0
e 265 13 36.0
e 265 194 15.0
e 265 263 1.0
e 265 298 1.0
e 265 107 1.0
e 265 203 1.0
e 266 297 10.0
e 266 7 15.0
e 266 264 1.0
e 266 232 2.0
e 266 159 2.0
e 266 16 1.0
e 266 308 1.0
e 266 290 1.0
e 267 139 1.0
e 267 246 1.0
e 267 265 1.0
e 267 23 1.0
e 267 50 1.0
e 267 18 1.0
e 267 32 1.0
e 267 146 1.0
e 268 185 1.0
e 268 310 1.0
e 268 145 2.0
e 268 284 33.0
e 268 25 1.0
e 268 278 2.0
e 268 69 1.0
e 268 309 1.0
e 269 56 24.0
e 269 113 45.0
e 269 42 26.0
e 269 166 12.0
e 269 76 1.0
e 269 256 19.0
e 269 0 23.0
e 270 104 1.0
e 270 267 1.0
e 270 241 19.0
e 270 238 1.0
e 270 286 1.0
e 270 226 2.0
e 270 16 1.0
e 270 200 29.0
e 271 102 2.0
e 271 143 1.0
e 271 206 1.0
e 271 270 1.0
e 271 48 1.0
e 271 60 1.0
e 271 6 1.0
e 271 211 1.0
e 272 48 1.0
e 272 89 1.0
e 272 37 1.0
e 272 301 1.0
e 272 160 1.0
e 272 136 1.0
e 272 58 1.0
e 272 110 3.0
e 273 212 1.0
e 273 189 1.0
e 273 260 1.0
e 273 65 31.0
e 273 152 2.0
e 273 233 41.0
e 273 94 1.0
e 273 218 1.0
e 274 315 1.0
e 274 122 1.0
e 274 27 1.0
e 274 143 1.0
e 274 269 11.0
e 274 159 2.0
e 274 262 36.0
e 274 155 1.0
e 275 246 2.0
e 275 18 1.0
e 275 169 1.0
e 275 25 1.0
e 275 153 1.0
e 275 48 1.0
e 275 55 1.0
e 275 205 2.0
e 276 55 1.0
e 276 97 2.0
e 276 48 3.0
e 276 94 1.0
e 276 3 3.0
e 276 46 2.0
e 276 234 16.0
e 276 156 2.0
e 277 172 2.0
e 277 268 1.0
e 277 163 1.0
e 277 194 33.0
e 277 193 1.0
e 277 289 1.0
e 277 190 1.0
e 278 217 1.0
e 278 310 1.0
e 278 0 1.0
e 278 70 2.0
e 278 35 2.0
e 278 288 1.0
e 278 252 1.0
e 279 73 2.0
e 279 197 1.0
e 279 8 1.0
e 279 227 1.0
e 279 259 1.0
e 279 0 2.0
e 279 130 1.0
e 279 72 1.0
e 280 166 11.0
e 280 254 41.0
e 280 101 10.0
e 280 2 38.0
e 280 217 37.0
e 280 194 39.0
e 280 28 42.0
e 280 31 43.0
e 281 26 1.0
e 281 87 1.0
e 281 120 1.0
e 281 129 1.0
e 281 272 1.0
e 281 300 1.0
e 281 265 1.0
e 281 150 1.0
e 282 225 1.0
e 282 306 36.0
e 282 167 2.0
e 282 78 1.0
e 282 186 16.0
e 282 140 1.0
e 282 195 23.0
e 282 132 1.0
e 283 155 2.0
e 283 50 1.0
e 283 271 1.0
e 283 67 1.0
e 283 11 1.0
e 283 263 2.0
e 283 64 1.0
e 283 252 1.0
e 284 211 41.0
e 284 247 3.0
e 284 71 39.0
e 284 302 3.0
e 284 117 29.0
e 284 98 8.0
e 284 224 31.0
e 284 218 28.0
e 285 316 1.0
e 285 287 2.0
e 285 66 3.0
e 285 224 2.0
e 285 248 1.0
e 285 187 1.0
e 285 189 2.0
e 285 176 3.0
e 286 105 1.0
e 286 154 1.0
e 286 24 1.0
e 286 62 1.0
e 286 120 1.0
e 286 14 1.0
e 286 199 1.0
e 286 48 1.0
e 287 154 1.0
e 287 116 1.0
e 287 98 1.0
e 287 3 2.0
e 287 262 35.0
e 287 16 2.0
e 287 64 1.0
e 287 119 1.0
e 288 210 1.0
e 288 60 1.0
e 288 313 1.0
e 288 218 1.0
e 288 269 39.0
e 288 144 2.0
e 288 146 1.0
e 288 14 1.0
e 289 241 18.0
e 289 149 39.0
e 289 259 1.0
e 289 48 1.0
e 289 44 2.0
e 289 300 1.0
e 289 228 1.0
e 290 174 1.0
e 290 122 1.0
e 290 31 1.0
e 290 195 19.0
e 290 267 1.0
e 290 171 1.0
e 290 254 1.0
e 290 69 1.0
e 291 308 1.0
e 291 101 1.0
e 291 8 1.0
e 291 55 1.0
e 291 199 1.0
e 291 302 42.0
e 291 184 1.0
e 291 91 2.0
e 292 149 28.0
e 292 219 3.0
e 292 242 3.0
e 292 70 1.0
e 292 301 2.0
e 292 98 1.0
e 292 73 1.0
e 292 268 1.0
e 293 105 1.0
e 293 14 1.0
e 293 308 1.0
e 293 255 1.0
e 293 84 1.0
e 293 275 1.0
e 293 212 2.0
e 293 81 1.0
e 294 210 1.0
e 294 127 1.0
e 294 190 1.0
e 294 252 1.0
e 294 148 1.0
e 294 56 2.0
e 294 287 2.0
e 294 292 1.0
e 295 125 2.0
e 295 169 1.0
e 295 299 5.0
e 295 245 16.0
e 295 33 1.0
e 295 101 1.0
e 295 282 1.0
e 295 143 1.0
e 296 192 1.0
e 296 190 1.0
e 296 293 2.0
e 296 237 1.0
e 296 38 1.0
e 296 75 1.0
e 296 87 1.0
e 296 294 1.0
e 297 20 17.0
e 297 137 24.0
e 297 50 35.0
e 297 311 30.0
e 297 224 48.0
e 297 153 4.0
e 297 307 36.0
e 298 57 1.0
e 298 188 2.0
e 298 12 1.0
e 298 119 1.0
e 298 49 2.0
e 298 213 1.0
e 298 54 1.0
e 299 190 5.0
e 299 143 6.0
e 299 288 26.0
e 299 165 10.0
e 299 315 32.0
e 299 220 40.0
e 299 250 10.0
e 299 298 39.0
e 300 19 36.0
e 300 211 1.0
e 300 107 1.0
e 300 76 1.0
e 300 216 1.0
e 300 97 1.0
e 300 224 1.0
e 300 122 1.0
e 301 182 2.0
e 301 1 1.0
e 301 71 1.0
e 301 298 1.0
e 301 252 2.0
e 301 27 1.0
e 301 112 1.0
e 301 117 1.0
e 302 282 3.0
e 302 114 27.0
e 302 260 6.0
e 302 241 39.0
e 302 308 39.0
e 302 57 14.0
e 302 143 2.0
e 302 262 28.0
e 303 27 1.0
e 303 162 1.0
e 303 54 1.0
e 303 145 2.0
e 303 92 1.0
e 303 106 10.0
e 303 153 1.0
e 303 285 2.0
e 304 196 1.0
e 304 223 1.0
e 304 201 1.0
e 304 149 49.0
e 304 248 1.0
e 304 297 41.0
e 304 252 1.0
e 304 123 1.0
e 305 71 1.0
e 305 116 1.0
e 305 248 1.0
e 305 273 1.0
e 305 59 1.0
e 305 268 1.0
e 305 307 1.0
e 305 89 1.0
e 306 91 17.0
e 306 45 28.0
e 306 268 22.0
e 306 92 41.0
e 306 257 34.0
e 307 30 1.0
e 307 9 1.0
e 307 283 1.0
e 307 52 1.0
e 307 116 1.0
e 307 263 1.0
e 307 105 1.0
e 308 6 1.0
e 308 297 15.0
e 308 295 1.0
e 308 22 1.0
e 308 21 1.0
e 308 248 1.0
e 308 1 1.0
e 308 19 7.0
e 309 300 1.0
e 309 229 1.0
e 309 184 46.0
e 309 307 1.0
e 309 157 1.0
e 309 132 1.0
e 309 47 1.0
e 309 148 1.0
e 310 258 2.0
e 310 225 2.0
e 310 15 2.0
e 310 19 5.0
e 310 183 1.0
e 310 120 1.0
e 310 141 1.0
e 310 196 2.0
e 311 191 28.0
e 311 9 1.0
e 311 243 1.0
e 311 136 1.0
e 311 210 1.0
e 311 20 1.0
e 311 128 8.0
e 311 189 1.0
e 312 309 1.0
e 312 73 1.0
e 312 34 1.0
e 312 144 2.0
e 312 209 1.0
e 312 169 1.0
e 312 150 1.0
e 313 267 1.0
e 313 29 2.0
e 313 195 12.0
e 313 307 1.0
e 313 98 1.0
e 313 56 1.0
e 313 143 1.0
e 313 184 3.0
e 314 219 1.0
e 314 204 30.0
e 314 98 1.0
e 314 23 1.0
e 314 174 1.0
e 314 229 1.0
e 314 105 1.0
e 314 165 15.0
e 315 237 1.0
e 315 156 1.0
e 315 133 1.0
e 315 135 1.0
e 315 83 1.0
e 315 280 45.0
e 315 290 1.0
e 315 35 1.0
e 316 293 2.0
e 316 153 1.0
e 316 194 37.0
e 316 18 1.0
e 316 47 1.0
e 316 317 1.0
e 316 294 1.0
e 316 11 1.0
e 317 183 1.0
e 317 193 1.0
e 317 161 31.0
e 317 307 1.0
e 317 246 2.0
e 317 270 1.0
e 317 36 1.0
e 317 78 1.0
e 318 54 1.0
e 318 266 1.0
e 318 211 1.0
e 318 30 2.0
e 318 283 1.0
e 318 201 1.0
e 318 280 42.0
e 318 155 1.0
e 319 294 1.0
e 319 289 1.0
e 319 189 1.0
e 319 98 1.0
e 319 255 1.0
e 319 226 2.0
e 319 191 18.0
e 319 241 5.0
